c Reduced graph for r26 generated by Cyril Grelier
p edge 284 3629
e 1 2
e 1 3
e 1 4
e 1 5
e 1 6
e 1 7
e 1 8
e 1 9
e 1 10
e 1 11
e 1 12
e 1 17
e 1 18
e 1 19
e 1 30
e 1 31
e 1 32
e 1 35
e 1 36
e 1 37
e 1 39
e 1 40
e 1 41
e 1 42
e 1 53
e 1 70
e 1 90
e 1 94
e 1 95
e 1 109
e 1 115
e 1 133
e 1 155
e 2 3
e 2 4
e 2 5
e 2 6
e 2 7
e 2 8
e 2 10
e 2 11
e 2 12
e 2 13
e 2 15
e 2 19
e 2 33
e 2 39
e 2 40
e 2 41
e 2 42
e 2 48
e 2 50
e 2 52
e 2 54
e 2 61
e 2 63
e 2 65
e 2 70
e 2 89
e 2 109
e 2 128
e 2 137
e 2 159
e 2 196
e 3 4
e 3 5
e 3 6
e 3 7
e 3 8
e 3 10
e 3 11
e 3 12
e 3 14
e 3 16
e 3 19
e 3 34
e 3 38
e 3 39
e 3 40
e 3 41
e 3 42
e 3 49
e 3 51
e 3 55
e 3 62
e 3 64
e 3 70
e 3 109
e 3 129
e 3 134
e 3 138
e 3 149
e 3 160
e 3 197
e 4 5
e 4 6
e 4 7
e 4 8
e 4 10
e 4 11
e 4 12
e 4 19
e 4 20
e 4 25
e 4 39
e 4 40
e 4 41
e 4 42
e 4 56
e 4 66
e 4 70
e 4 74
e 4 82
e 4 85
e 4 91
e 4 103
e 4 109
e 4 161
e 4 170
e 4 182
e 4 204
e 4 233
e 5 6
e 5 7
e 5 8
e 5 10
e 5 11
e 5 12
e 5 19
e 5 21
e 5 26
e 5 39
e 5 40
e 5 41
e 5 42
e 5 57
e 5 67
e 5 70
e 5 75
e 5 79
e 5 83
e 5 86
e 5 92
e 5 109
e 5 157
e 5 162
e 5 166
e 5 205
e 5 234
e 6 7
e 6 8
e 6 10
e 6 11
e 6 12
e 6 19
e 6 22
e 6 27
e 6 39
e 6 40
e 6 41
e 6 42
e 6 58
e 6 68
e 6 70
e 6 76
e 6 84
e 6 93
e 6 104
e 6 109
e 6 125
e 6 163
e 6 167
e 6 171
e 6 206
e 6 235
e 7 8
e 7 10
e 7 11
e 7 12
e 7 19
e 7 23
e 7 28
e 7 39
e 7 40
e 7 41
e 7 42
e 7 59
e 7 70
e 7 77
e 7 80
e 7 87
e 7 99
e 7 101
e 7 105
e 7 109
e 7 126
e 7 158
e 7 164
e 7 172
e 7 183
e 8 10
e 8 11
e 8 12
e 8 19
e 8 24
e 8 29
e 8 39
e 8 40
e 8 41
e 8 42
e 8 60
e 8 69
e 8 70
e 8 78
e 8 81
e 8 88
e 8 100
e 8 102
e 8 106
e 8 109
e 8 127
e 8 165
e 8 168
e 8 236
e 9 15
e 9 16
e 9 17
e 9 18
e 9 25
e 9 26
e 9 27
e 9 28
e 9 29
e 9 30
e 9 31
e 9 32
e 9 35
e 9 36
e 9 37
e 9 45
e 9 46
e 9 47
e 9 53
e 9 72
e 9 73
e 9 90
e 9 94
e 9 95
e 9 114
e 9 115
e 9 133
e 9 147
e 9 148
e 9 155
e 10 11
e 10 12
e 10 19
e 10 39
e 10 40
e 10 41
e 10 42
e 10 45
e 10 70
e 10 96
e 10 107
e 10 109
e 10 116
e 10 118
e 10 120
e 10 122
e 10 130
e 10 139
e 10 141
e 10 209
e 10 210
e 10 243
e 11 12
e 11 19
e 11 39
e 11 40
e 11 41
e 11 42
e 11 43
e 11 46
e 11 70
e 11 97
e 11 109
e 11 121
e 11 123
e 11 131
e 11 140
e 11 142
e 11 143
e 11 156
e 11 207
e 11 211
e 11 225
e 12 19
e 12 39
e 12 40
e 12 41
e 12 42
e 12 44
e 12 47
e 12 70
e 12 98
e 12 108
e 12 109
e 12 117
e 12 119
e 12 124
e 12 132
e 12 144
e 12 208
e 12 212
e 12 226
e 12 254
e 13 14
e 13 15
e 13 20
e 13 21
e 13 22
e 13 23
e 13 24
e 13 33
e 13 43
e 13 44
e 13 48
e 13 50
e 13 52
e 13 54
e 13 61
e 13 63
e 13 65
e 13 71
e 13 89
e 13 110
e 13 111
e 13 112
e 13 113
e 13 128
e 13 137
e 13 146
e 13 159
e 13 181
e 13 196
e 14 16
e 14 20
e 14 21
e 14 22
e 14 23
e 14 24
e 14 34
e 14 38
e 14 43
e 14 44
e 14 49
e 14 51
e 14 55
e 14 62
e 14 64
e 14 71
e 14 110
e 14 111
e 14 112
e 14 113
e 14 129
e 14 134
e 14 138
e 14 146
e 14 149
e 14 160
e 14 181
e 14 197
e 15 16
e 15 25
e 15 26
e 15 27
e 15 28
e 15 29
e 15 33
e 15 45
e 15 46
e 15 47
e 15 48
e 15 50
e 15 52
e 15 54
e 15 61
e 15 63
e 15 65
e 15 72
e 15 73
e 15 89
e 15 114
e 15 128
e 15 137
e 15 147
e 15 148
e 15 159
e 15 196
e 16 25
e 16 26
e 16 27
e 16 28
e 16 29
e 16 34
e 16 38
e 16 45
e 16 46
e 16 47
e 16 49
e 16 51
e 16 55
e 16 62
e 16 64
e 16 72
e 16 73
e 16 114
e 16 129
e 16 134
e 16 138
e 16 147
e 16 148
e 16 149
e 16 160
e 16 197
e 17 18
e 17 30
e 17 31
e 17 32
e 17 33
e 17 34
e 17 35
e 17 36
e 17 37
e 17 53
e 17 56
e 17 57
e 17 58
e 17 59
e 17 60
e 17 90
e 17 94
e 17 95
e 17 96
e 17 97
e 17 98
e 17 115
e 17 133
e 17 135
e 17 136
e 17 155
e 17 169
e 17 246
e 18 30
e 18 31
e 18 32
e 18 35
e 18 36
e 18 37
e 18 38
e 18 53
e 18 66
e 18 67
e 18 68
e 18 69
e 18 90
e 18 94
e 18 95
e 18 107
e 18 108
e 18 115
e 18 133
e 18 145
e 18 155
e 18 178
e 18 179
e 18 180
e 18 224
e 18 251
e 19 39
e 19 40
e 19 41
e 19 42
e 19 70
e 19 73
e 19 109
e 19 136
e 19 145
e 19 150
e 19 152
e 19 174
e 19 176
e 19 177
e 19 199
e 19 241
e 19 245
e 19 261
e 20 21
e 20 22
e 20 23
e 20 24
e 20 25
e 20 43
e 20 44
e 20 56
e 20 66
e 20 71
e 20 74
e 20 82
e 20 85
e 20 91
e 20 103
e 20 110
e 20 111
e 20 112
e 20 113
e 20 146
e 20 161
e 20 170
e 20 181
e 20 182
e 20 204
e 20 233
e 21 22
e 21 23
e 21 24
e 21 26
e 21 43
e 21 44
e 21 57
e 21 67
e 21 71
e 21 75
e 21 79
e 21 83
e 21 86
e 21 92
e 21 110
e 21 111
e 21 112
e 21 113
e 21 146
e 21 157
e 21 162
e 21 166
e 21 181
e 21 205
e 21 234
e 22 23
e 22 24
e 22 27
e 22 43
e 22 44
e 22 58
e 22 68
e 22 71
e 22 76
e 22 84
e 22 93
e 22 104
e 22 110
e 22 111
e 22 112
e 22 113
e 22 125
e 22 146
e 22 163
e 22 167
e 22 171
e 22 181
e 22 206
e 22 235
e 23 24
e 23 28
e 23 43
e 23 44
e 23 59
e 23 71
e 23 77
e 23 80
e 23 87
e 23 99
e 23 101
e 23 105
e 23 110
e 23 111
e 23 112
e 23 113
e 23 126
e 23 146
e 23 158
e 23 164
e 23 172
e 23 181
e 23 183
e 24 29
e 24 43
e 24 44
e 24 60
e 24 69
e 24 71
e 24 78
e 24 81
e 24 88
e 24 100
e 24 102
e 24 106
e 24 110
e 24 111
e 24 112
e 24 113
e 24 127
e 24 146
e 24 165
e 24 168
e 24 181
e 24 236
e 25 26
e 25 27
e 25 28
e 25 29
e 25 45
e 25 46
e 25 47
e 25 56
e 25 66
e 25 72
e 25 73
e 25 74
e 25 82
e 25 85
e 25 91
e 25 103
e 25 114
e 25 147
e 25 148
e 25 161
e 25 170
e 25 182
e 25 204
e 25 233
e 26 27
e 26 28
e 26 29
e 26 45
e 26 46
e 26 47
e 26 57
e 26 67
e 26 72
e 26 73
e 26 75
e 26 79
e 26 83
e 26 86
e 26 92
e 26 114
e 26 147
e 26 148
e 26 157
e 26 162
e 26 166
e 26 205
e 26 234
e 27 28
e 27 29
e 27 45
e 27 46
e 27 47
e 27 58
e 27 68
e 27 72
e 27 73
e 27 76
e 27 84
e 27 93
e 27 104
e 27 114
e 27 125
e 27 147
e 27 148
e 27 163
e 27 167
e 27 171
e 27 206
e 27 235
e 28 29
e 28 45
e 28 46
e 28 47
e 28 59
e 28 72
e 28 73
e 28 77
e 28 80
e 28 87
e 28 99
e 28 101
e 28 105
e 28 114
e 28 126
e 28 147
e 28 148
e 28 158
e 28 164
e 28 172
e 28 183
e 29 45
e 29 46
e 29 47
e 29 60
e 29 69
e 29 72
e 29 73
e 29 78
e 29 81
e 29 88
e 29 100
e 29 102
e 29 106
e 29 114
e 29 127
e 29 147
e 29 148
e 29 165
e 29 168
e 29 236
e 30 31
e 30 32
e 30 35
e 30 36
e 30 37
e 30 48
e 30 49
e 30 53
e 30 74
e 30 75
e 30 76
e 30 77
e 30 78
e 30 90
e 30 94
e 30 95
e 30 115
e 30 116
e 30 117
e 30 133
e 30 150
e 30 155
e 30 184
e 30 185
e 30 227
e 31 32
e 31 35
e 31 36
e 31 37
e 31 51
e 31 53
e 31 82
e 31 83
e 31 84
e 31 90
e 31 94
e 31 95
e 31 115
e 31 120
e 31 121
e 31 133
e 31 153
e 31 155
e 31 190
e 31 191
e 31 192
e 31 193
e 31 230
e 31 231
e 32 35
e 32 36
e 32 37
e 32 52
e 32 53
e 32 85
e 32 86
e 32 87
e 32 88
e 32 90
e 32 94
e 32 95
e 32 115
e 32 122
e 32 123
e 32 124
e 32 133
e 32 154
e 32 155
e 32 194
e 32 195
e 32 232
e 32 253
e 33 34
e 33 48
e 33 50
e 33 52
e 33 54
e 33 56
e 33 57
e 33 58
e 33 59
e 33 60
e 33 61
e 33 63
e 33 65
e 33 89
e 33 96
e 33 97
e 33 98
e 33 128
e 33 135
e 33 136
e 33 137
e 33 159
e 33 169
e 33 196
e 33 246
e 34 38
e 34 49
e 34 51
e 34 55
e 34 56
e 34 57
e 34 58
e 34 59
e 34 60
e 34 62
e 34 64
e 34 96
e 34 97
e 34 98
e 34 129
e 34 134
e 34 135
e 34 136
e 34 138
e 34 149
e 34 160
e 34 169
e 34 197
e 34 246
e 35 36
e 35 37
e 35 53
e 35 61
e 35 62
e 35 90
e 35 94
e 35 95
e 35 99
e 35 100
e 35 115
e 35 133
e 35 139
e 35 140
e 35 155
e 35 173
e 35 174
e 35 213
e 35 214
e 35 215
e 35 216
e 35 248
e 36 37
e 36 53
e 36 63
e 36 64
e 36 90
e 36 94
e 36 95
e 36 101
e 36 102
e 36 115
e 36 133
e 36 141
e 36 142
e 36 155
e 36 175
e 36 176
e 36 217
e 36 218
e 36 219
e 36 220
e 36 271
e 37 53
e 37 65
e 37 90
e 37 94
e 37 95
e 37 103
e 37 104
e 37 105
e 37 106
e 37 115
e 37 133
e 37 143
e 37 144
e 37 155
e 37 177
e 37 221
e 37 222
e 37 223
e 37 249
e 37 250
e 38 49
e 38 51
e 38 55
e 38 62
e 38 64
e 38 66
e 38 67
e 38 68
e 38 69
e 38 107
e 38 108
e 38 129
e 38 134
e 38 138
e 38 145
e 38 149
e 38 160
e 38 178
e 38 179
e 38 180
e 38 197
e 38 224
e 38 251
e 39 40
e 39 41
e 39 42
e 39 70
e 39 109
e 39 110
e 39 114
e 39 169
e 39 186
e 39 190
e 39 200
e 39 213
e 39 237
e 39 262
e 39 266
e 39 269
e 40 41
e 40 42
e 40 70
e 40 109
e 40 111
e 40 178
e 40 184
e 40 191
e 40 194
e 40 217
e 40 221
e 40 263
e 40 267
e 40 270
e 40 275
e 41 42
e 41 70
e 41 109
e 41 112
e 41 188
e 41 192
e 41 195
e 41 202
e 41 215
e 41 219
e 41 258
e 41 273
e 41 276
e 41 279
e 42 70
e 42 109
e 42 113
e 42 180
e 42 189
e 42 193
e 42 203
e 42 216
e 42 220
e 42 223
e 42 239
e 42 259
e 42 265
e 43 44
e 43 46
e 43 71
e 43 97
e 43 110
e 43 111
e 43 112
e 43 113
e 43 121
e 43 123
e 43 131
e 43 140
e 43 142
e 43 143
e 43 146
e 43 156
e 43 181
e 43 207
e 43 211
e 43 225
e 44 47
e 44 71
e 44 98
e 44 108
e 44 110
e 44 111
e 44 112
e 44 113
e 44 117
e 44 119
e 44 124
e 44 132
e 44 144
e 44 146
e 44 181
e 44 208
e 44 212
e 44 226
e 44 254
e 45 46
e 45 47
e 45 72
e 45 73
e 45 96
e 45 107
e 45 114
e 45 116
e 45 118
e 45 120
e 45 122
e 45 130
e 45 139
e 45 141
e 45 147
e 45 148
e 45 209
e 45 210
e 45 243
e 46 47
e 46 72
e 46 73
e 46 97
e 46 114
e 46 121
e 46 123
e 46 131
e 46 140
e 46 142
e 46 143
e 46 147
e 46 148
e 46 156
e 46 207
e 46 211
e 46 225
e 47 72
e 47 73
e 47 98
e 47 108
e 47 114
e 47 117
e 47 119
e 47 124
e 47 132
e 47 144
e 47 147
e 47 148
e 47 208
e 47 212
e 47 226
e 47 254
e 48 49
e 48 50
e 48 52
e 48 54
e 48 61
e 48 63
e 48 65
e 48 74
e 48 75
e 48 76
e 48 77
e 48 78
e 48 89
e 48 116
e 48 117
e 48 128
e 48 137
e 48 150
e 48 159
e 48 184
e 48 185
e 48 196
e 48 227
e 49 51
e 49 55
e 49 62
e 49 64
e 49 74
e 49 75
e 49 76
e 49 77
e 49 78
e 49 116
e 49 117
e 49 129
e 49 134
e 49 138
e 49 149
e 49 150
e 49 160
e 49 184
e 49 185
e 49 197
e 49 227
e 50 52
e 50 54
e 50 61
e 50 63
e 50 65
e 50 79
e 50 80
e 50 81
e 50 89
e 50 118
e 50 119
e 50 128
e 50 137
e 50 151
e 50 152
e 50 159
e 50 186
e 50 187
e 50 188
e 50 189
e 50 196
e 50 228
e 50 229
e 51 55
e 51 62
e 51 64
e 51 82
e 51 83
e 51 84
e 51 120
e 51 121
e 51 129
e 51 134
e 51 138
e 51 149
e 51 153
e 51 160
e 51 190
e 51 191
e 51 192
e 51 193
e 51 197
e 51 230
e 51 231
e 52 54
e 52 61
e 52 63
e 52 65
e 52 85
e 52 86
e 52 87
e 52 88
e 52 89
e 52 122
e 52 123
e 52 124
e 52 128
e 52 137
e 52 154
e 52 159
e 52 194
e 52 195
e 52 196
e 52 232
e 52 253
e 53 89
e 53 90
e 53 94
e 53 95
e 53 115
e 53 125
e 53 126
e 53 127
e 53 133
e 53 155
e 53 156
e 53 198
e 53 199
e 53 237
e 53 238
e 53 239
e 53 255
e 53 256
e 54 55
e 54 61
e 54 63
e 54 65
e 54 89
e 54 91
e 54 92
e 54 93
e 54 128
e 54 130
e 54 131
e 54 132
e 54 137
e 54 159
e 54 196
e 54 200
e 54 201
e 54 202
e 54 203
e 54 242
e 54 260
e 55 62
e 55 64
e 55 91
e 55 92
e 55 93
e 55 129
e 55 130
e 55 131
e 55 132
e 55 134
e 55 138
e 55 149
e 55 160
e 55 197
e 55 200
e 55 201
e 55 202
e 55 203
e 55 242
e 55 260
e 56 57
e 56 58
e 56 59
e 56 60
e 56 66
e 56 74
e 56 82
e 56 85
e 56 91
e 56 96
e 56 97
e 56 98
e 56 103
e 56 135
e 56 136
e 56 161
e 56 169
e 56 170
e 56 182
e 56 204
e 56 233
e 56 246
e 57 58
e 57 59
e 57 60
e 57 67
e 57 75
e 57 79
e 57 83
e 57 86
e 57 92
e 57 96
e 57 97
e 57 98
e 57 135
e 57 136
e 57 157
e 57 162
e 57 166
e 57 169
e 57 205
e 57 234
e 57 246
e 58 59
e 58 60
e 58 68
e 58 76
e 58 84
e 58 93
e 58 96
e 58 97
e 58 98
e 58 104
e 58 125
e 58 135
e 58 136
e 58 163
e 58 167
e 58 169
e 58 171
e 58 206
e 58 235
e 58 246
e 59 60
e 59 77
e 59 80
e 59 87
e 59 96
e 59 97
e 59 98
e 59 99
e 59 101
e 59 105
e 59 126
e 59 135
e 59 136
e 59 158
e 59 164
e 59 169
e 59 172
e 59 183
e 59 246
e 60 69
e 60 78
e 60 81
e 60 88
e 60 96
e 60 97
e 60 98
e 60 100
e 60 102
e 60 106
e 60 127
e 60 135
e 60 136
e 60 165
e 60 168
e 60 169
e 60 236
e 60 246
e 61 62
e 61 63
e 61 65
e 61 89
e 61 99
e 61 100
e 61 128
e 61 137
e 61 139
e 61 140
e 61 159
e 61 173
e 61 174
e 61 196
e 61 213
e 61 214
e 61 215
e 61 216
e 61 248
e 62 64
e 62 99
e 62 100
e 62 129
e 62 134
e 62 138
e 62 139
e 62 140
e 62 149
e 62 160
e 62 173
e 62 174
e 62 197
e 62 213
e 62 214
e 62 215
e 62 216
e 62 248
e 63 64
e 63 65
e 63 89
e 63 101
e 63 102
e 63 128
e 63 137
e 63 141
e 63 142
e 63 159
e 63 175
e 63 176
e 63 196
e 63 217
e 63 218
e 63 219
e 63 220
e 63 271
e 64 101
e 64 102
e 64 129
e 64 134
e 64 138
e 64 141
e 64 142
e 64 149
e 64 160
e 64 175
e 64 176
e 64 197
e 64 217
e 64 218
e 64 219
e 64 220
e 64 271
e 65 89
e 65 103
e 65 104
e 65 105
e 65 106
e 65 128
e 65 137
e 65 143
e 65 144
e 65 159
e 65 177
e 65 196
e 65 221
e 65 222
e 65 223
e 65 249
e 65 250
e 66 67
e 66 68
e 66 69
e 66 74
e 66 82
e 66 85
e 66 91
e 66 103
e 66 107
e 66 108
e 66 145
e 66 161
e 66 170
e 66 178
e 66 179
e 66 180
e 66 182
e 66 204
e 66 224
e 66 233
e 66 251
e 67 68
e 67 69
e 67 75
e 67 79
e 67 83
e 67 86
e 67 92
e 67 107
e 67 108
e 67 145
e 67 157
e 67 162
e 67 166
e 67 178
e 67 179
e 67 180
e 67 205
e 67 224
e 67 234
e 67 251
e 68 69
e 68 76
e 68 84
e 68 93
e 68 104
e 68 107
e 68 108
e 68 125
e 68 145
e 68 163
e 68 167
e 68 171
e 68 178
e 68 179
e 68 180
e 68 206
e 68 224
e 68 235
e 68 251
e 69 78
e 69 81
e 69 88
e 69 100
e 69 102
e 69 106
e 69 107
e 69 108
e 69 127
e 69 145
e 69 165
e 69 168
e 69 178
e 69 179
e 69 180
e 69 224
e 69 236
e 69 251
e 70 109
e 70 147
e 70 228
e 70 230
e 70 242
e 70 248
e 70 249
e 70 255
e 70 274
e 70 277
e 70 284
e 71 72
e 71 110
e 71 111
e 71 112
e 71 113
e 71 135
e 71 146
e 71 151
e 71 153
e 71 154
e 71 173
e 71 175
e 71 181
e 71 198
e 71 240
e 71 244
e 71 247
e 71 252
e 72 73
e 72 114
e 72 135
e 72 147
e 72 148
e 72 151
e 72 153
e 72 154
e 72 173
e 72 175
e 72 198
e 72 240
e 72 244
e 72 247
e 72 252
e 73 114
e 73 136
e 73 145
e 73 147
e 73 148
e 73 150
e 73 152
e 73 174
e 73 176
e 73 177
e 73 199
e 73 241
e 73 245
e 73 261
e 74 75
e 74 76
e 74 77
e 74 78
e 74 82
e 74 85
e 74 91
e 74 103
e 74 116
e 74 117
e 74 150
e 74 161
e 74 170
e 74 182
e 74 184
e 74 185
e 74 204
e 74 227
e 74 233
e 75 76
e 75 77
e 75 78
e 75 79
e 75 83
e 75 86
e 75 92
e 75 116
e 75 117
e 75 150
e 75 157
e 75 162
e 75 166
e 75 184
e 75 185
e 75 205
e 75 227
e 75 234
e 76 77
e 76 78
e 76 84
e 76 93
e 76 104
e 76 116
e 76 117
e 76 125
e 76 150
e 76 163
e 76 167
e 76 171
e 76 184
e 76 185
e 76 206
e 76 227
e 76 235
e 77 78
e 77 80
e 77 87
e 77 99
e 77 101
e 77 105
e 77 116
e 77 117
e 77 126
e 77 150
e 77 158
e 77 164
e 77 172
e 77 183
e 77 184
e 77 185
e 77 227
e 78 81
e 78 88
e 78 100
e 78 102
e 78 106
e 78 116
e 78 117
e 78 127
e 78 150
e 78 165
e 78 168
e 78 184
e 78 185
e 78 227
e 78 236
e 79 80
e 79 81
e 79 83
e 79 86
e 79 92
e 79 118
e 79 119
e 79 151
e 79 152
e 79 157
e 79 162
e 79 166
e 79 186
e 79 187
e 79 188
e 79 189
e 79 205
e 79 228
e 79 229
e 79 234
e 80 81
e 80 87
e 80 99
e 80 101
e 80 105
e 80 118
e 80 119
e 80 126
e 80 151
e 80 152
e 80 158
e 80 164
e 80 172
e 80 183
e 80 186
e 80 187
e 80 188
e 80 189
e 80 228
e 80 229
e 81 88
e 81 100
e 81 102
e 81 106
e 81 118
e 81 119
e 81 127
e 81 151
e 81 152
e 81 165
e 81 168
e 81 186
e 81 187
e 81 188
e 81 189
e 81 228
e 81 229
e 81 236
e 82 83
e 82 84
e 82 85
e 82 91
e 82 103
e 82 120
e 82 121
e 82 153
e 82 161
e 82 170
e 82 182
e 82 190
e 82 191
e 82 192
e 82 193
e 82 204
e 82 230
e 82 231
e 82 233
e 83 84
e 83 86
e 83 92
e 83 120
e 83 121
e 83 153
e 83 157
e 83 162
e 83 166
e 83 190
e 83 191
e 83 192
e 83 193
e 83 205
e 83 230
e 83 231
e 83 234
e 84 93
e 84 104
e 84 120
e 84 121
e 84 125
e 84 153
e 84 163
e 84 167
e 84 171
e 84 190
e 84 191
e 84 192
e 84 193
e 84 206
e 84 230
e 84 231
e 84 235
e 85 86
e 85 87
e 85 88
e 85 91
e 85 103
e 85 122
e 85 123
e 85 124
e 85 154
e 85 161
e 85 170
e 85 182
e 85 194
e 85 195
e 85 204
e 85 232
e 85 233
e 85 253
e 86 87
e 86 88
e 86 92
e 86 122
e 86 123
e 86 124
e 86 154
e 86 157
e 86 162
e 86 166
e 86 194
e 86 195
e 86 205
e 86 232
e 86 234
e 86 253
e 87 88
e 87 99
e 87 101
e 87 105
e 87 122
e 87 123
e 87 124
e 87 126
e 87 154
e 87 158
e 87 164
e 87 172
e 87 183
e 87 194
e 87 195
e 87 232
e 87 253
e 88 100
e 88 102
e 88 106
e 88 122
e 88 123
e 88 124
e 88 127
e 88 154
e 88 165
e 88 168
e 88 194
e 88 195
e 88 232
e 88 236
e 88 253
e 89 125
e 89 126
e 89 127
e 89 128
e 89 137
e 89 156
e 89 159
e 89 196
e 89 198
e 89 199
e 89 237
e 89 238
e 89 239
e 89 255
e 89 256
e 90 94
e 90 95
e 90 115
e 90 128
e 90 129
e 90 133
e 90 155
e 90 157
e 90 158
e 90 240
e 90 241
e 90 257
e 90 258
e 90 259
e 90 274
e 90 280
e 91 92
e 91 93
e 91 103
e 91 130
e 91 131
e 91 132
e 91 161
e 91 170
e 91 182
e 91 200
e 91 201
e 91 202
e 91 203
e 91 204
e 91 233
e 91 242
e 91 260
e 92 93
e 92 130
e 92 131
e 92 132
e 92 157
e 92 162
e 92 166
e 92 200
e 92 201
e 92 202
e 92 203
e 92 205
e 92 234
e 92 242
e 92 260
e 93 104
e 93 125
e 93 130
e 93 131
e 93 132
e 93 163
e 93 167
e 93 171
e 93 200
e 93 201
e 93 202
e 93 203
e 93 206
e 93 235
e 93 242
e 93 260
e 94 95
e 94 115
e 94 133
e 94 155
e 94 161
e 94 162
e 94 163
e 94 164
e 94 165
e 94 207
e 94 208
e 94 262
e 94 263
e 94 264
e 94 265
e 95 115
e 95 133
e 95 134
e 95 155
e 95 166
e 95 167
e 95 168
e 95 209
e 95 244
e 95 245
e 95 266
e 95 267
e 95 268
e 95 277
e 96 97
e 96 98
e 96 107
e 96 116
e 96 118
e 96 120
e 96 122
e 96 130
e 96 135
e 96 136
e 96 139
e 96 141
e 96 169
e 96 209
e 96 210
e 96 243
e 96 246
e 97 98
e 97 121
e 97 123
e 97 131
e 97 135
e 97 136
e 97 140
e 97 142
e 97 143
e 97 156
e 97 169
e 97 207
e 97 211
e 97 225
e 97 246
e 98 108
e 98 117
e 98 119
e 98 124
e 98 132
e 98 135
e 98 136
e 98 144
e 98 169
e 98 208
e 98 212
e 98 226
e 98 246
e 98 254
e 99 100
e 99 101
e 99 105
e 99 126
e 99 139
e 99 140
e 99 158
e 99 164
e 99 172
e 99 173
e 99 174
e 99 183
e 99 213
e 99 214
e 99 215
e 99 216
e 99 248
e 100 102
e 100 106
e 100 127
e 100 139
e 100 140
e 100 165
e 100 168
e 100 173
e 100 174
e 100 213
e 100 214
e 100 215
e 100 216
e 100 236
e 100 248
e 101 102
e 101 105
e 101 126
e 101 141
e 101 142
e 101 158
e 101 164
e 101 172
e 101 175
e 101 176
e 101 183
e 101 217
e 101 218
e 101 219
e 101 220
e 101 271
e 102 106
e 102 127
e 102 141
e 102 142
e 102 165
e 102 168
e 102 175
e 102 176
e 102 217
e 102 218
e 102 219
e 102 220
e 102 236
e 102 271
e 103 104
e 103 105
e 103 106
e 103 143
e 103 144
e 103 161
e 103 170
e 103 177
e 103 182
e 103 204
e 103 221
e 103 222
e 103 223
e 103 233
e 103 249
e 103 250
e 104 105
e 104 106
e 104 125
e 104 143
e 104 144
e 104 163
e 104 167
e 104 171
e 104 177
e 104 206
e 104 221
e 104 222
e 104 223
e 104 235
e 104 249
e 104 250
e 105 106
e 105 126
e 105 143
e 105 144
e 105 158
e 105 164
e 105 172
e 105 177
e 105 183
e 105 221
e 105 222
e 105 223
e 105 249
e 105 250
e 106 127
e 106 143
e 106 144
e 106 165
e 106 168
e 106 177
e 106 221
e 106 222
e 106 223
e 106 236
e 106 249
e 106 250
e 107 108
e 107 116
e 107 118
e 107 120
e 107 122
e 107 130
e 107 139
e 107 141
e 107 145
e 107 178
e 107 179
e 107 180
e 107 209
e 107 210
e 107 224
e 107 243
e 107 251
e 108 117
e 108 119
e 108 124
e 108 132
e 108 144
e 108 145
e 108 178
e 108 179
e 108 180
e 108 208
e 108 212
e 108 224
e 108 226
e 108 251
e 108 254
e 109 181
e 109 246
e 109 251
e 109 253
e 109 260
e 109 271
e 109 280
e 109 282
e 109 283
e 110 111
e 110 112
e 110 113
e 110 114
e 110 146
e 110 169
e 110 181
e 110 186
e 110 190
e 110 200
e 110 213
e 110 237
e 110 262
e 110 266
e 110 269
e 111 112
e 111 113
e 111 146
e 111 178
e 111 181
e 111 184
e 111 191
e 111 194
e 111 217
e 111 221
e 111 263
e 111 267
e 111 270
e 111 275
e 112 113
e 112 146
e 112 181
e 112 188
e 112 192
e 112 195
e 112 202
e 112 215
e 112 219
e 112 258
e 112 273
e 112 276
e 112 279
e 113 146
e 113 180
e 113 181
e 113 189
e 113 193
e 113 203
e 113 216
e 113 220
e 113 223
e 113 239
e 113 259
e 113 265
e 114 147
e 114 148
e 114 169
e 114 186
e 114 190
e 114 200
e 114 213
e 114 237
e 114 262
e 114 266
e 114 269
e 115 133
e 115 149
e 115 155
e 115 182
e 115 183
e 115 225
e 115 226
e 115 252
e 115 272
e 115 273
e 115 278
e 115 283
e 116 117
e 116 118
e 116 120
e 116 122
e 116 130
e 116 139
e 116 141
e 116 150
e 116 184
e 116 185
e 116 209
e 116 210
e 116 227
e 116 243
e 117 119
e 117 124
e 117 132
e 117 144
e 117 150
e 117 184
e 117 185
e 117 208
e 117 212
e 117 226
e 117 227
e 117 254
e 118 119
e 118 120
e 118 122
e 118 130
e 118 139
e 118 141
e 118 151
e 118 152
e 118 186
e 118 187
e 118 188
e 118 189
e 118 209
e 118 210
e 118 228
e 118 229
e 118 243
e 119 124
e 119 132
e 119 144
e 119 151
e 119 152
e 119 186
e 119 187
e 119 188
e 119 189
e 119 208
e 119 212
e 119 226
e 119 228
e 119 229
e 119 254
e 120 121
e 120 122
e 120 130
e 120 139
e 120 141
e 120 153
e 120 190
e 120 191
e 120 192
e 120 193
e 120 209
e 120 210
e 120 230
e 120 231
e 120 243
e 121 123
e 121 131
e 121 140
e 121 142
e 121 143
e 121 153
e 121 156
e 121 190
e 121 191
e 121 192
e 121 193
e 121 207
e 121 211
e 121 225
e 121 230
e 121 231
e 122 123
e 122 124
e 122 130
e 122 139
e 122 141
e 122 154
e 122 194
e 122 195
e 122 209
e 122 210
e 122 232
e 122 243
e 122 253
e 123 124
e 123 131
e 123 140
e 123 142
e 123 143
e 123 154
e 123 156
e 123 194
e 123 195
e 123 207
e 123 211
e 123 225
e 123 232
e 123 253
e 124 132
e 124 144
e 124 154
e 124 194
e 124 195
e 124 208
e 124 212
e 124 226
e 124 232
e 124 253
e 124 254
e 125 126
e 125 127
e 125 156
e 125 163
e 125 167
e 125 171
e 125 198
e 125 199
e 125 206
e 125 235
e 125 237
e 125 238
e 125 239
e 125 255
e 125 256
e 126 127
e 126 156
e 126 158
e 126 164
e 126 172
e 126 183
e 126 198
e 126 199
e 126 237
e 126 238
e 126 239
e 126 255
e 126 256
e 127 156
e 127 165
e 127 168
e 127 198
e 127 199
e 127 236
e 127 237
e 127 238
e 127 239
e 127 255
e 127 256
e 128 129
e 128 137
e 128 157
e 128 158
e 128 159
e 128 196
e 128 240
e 128 241
e 128 257
e 128 258
e 128 259
e 128 274
e 128 280
e 129 134
e 129 138
e 129 149
e 129 157
e 129 158
e 129 160
e 129 197
e 129 240
e 129 241
e 129 257
e 129 258
e 129 259
e 129 274
e 129 280
e 130 131
e 130 132
e 130 139
e 130 141
e 130 200
e 130 201
e 130 202
e 130 203
e 130 209
e 130 210
e 130 242
e 130 243
e 130 260
e 131 132
e 131 140
e 131 142
e 131 143
e 131 156
e 131 200
e 131 201
e 131 202
e 131 203
e 131 207
e 131 211
e 131 225
e 131 242
e 131 260
e 132 144
e 132 200
e 132 201
e 132 202
e 132 203
e 132 208
e 132 212
e 132 226
e 132 242
e 132 254
e 132 260
e 133 155
e 133 159
e 133 160
e 133 204
e 133 205
e 133 206
e 133 243
e 133 261
e 133 275
e 133 276
e 133 281
e 134 138
e 134 149
e 134 160
e 134 166
e 134 167
e 134 168
e 134 197
e 134 209
e 134 244
e 134 245
e 134 266
e 134 267
e 134 268
e 134 277
e 135 136
e 135 151
e 135 153
e 135 154
e 135 169
e 135 173
e 135 175
e 135 198
e 135 240
e 135 244
e 135 246
e 135 247
e 135 252
e 136 145
e 136 150
e 136 152
e 136 169
e 136 174
e 136 176
e 136 177
e 136 199
e 136 241
e 136 245
e 136 246
e 136 261
e 137 138
e 137 159
e 137 170
e 137 171
e 137 172
e 137 196
e 137 210
e 137 211
e 137 212
e 137 247
e 137 269
e 137 270
e 137 282
e 138 149
e 138 160
e 138 170
e 138 171
e 138 172
e 138 197
e 138 210
e 138 211
e 138 212
e 138 247
e 138 269
e 138 270
e 138 282
e 139 140
e 139 141
e 139 173
e 139 174
e 139 209
e 139 210
e 139 213
e 139 214
e 139 215
e 139 216
e 139 243
e 139 248
e 140 142
e 140 143
e 140 156
e 140 173
e 140 174
e 140 207
e 140 211
e 140 213
e 140 214
e 140 215
e 140 216
e 140 225
e 140 248
e 141 142
e 141 175
e 141 176
e 141 209
e 141 210
e 141 217
e 141 218
e 141 219
e 141 220
e 141 243
e 141 271
e 142 143
e 142 156
e 142 175
e 142 176
e 142 207
e 142 211
e 142 217
e 142 218
e 142 219
e 142 220
e 142 225
e 142 271
e 143 144
e 143 156
e 143 177
e 143 207
e 143 211
e 143 221
e 143 222
e 143 223
e 143 225
e 143 249
e 143 250
e 144 177
e 144 208
e 144 212
e 144 221
e 144 222
e 144 223
e 144 226
e 144 249
e 144 250
e 144 254
e 145 150
e 145 152
e 145 174
e 145 176
e 145 177
e 145 178
e 145 179
e 145 180
e 145 199
e 145 224
e 145 241
e 145 245
e 145 251
e 145 261
e 146 148
e 146 181
e 146 224
e 146 227
e 146 229
e 146 231
e 146 232
e 146 250
e 146 256
e 146 278
e 146 281
e 147 148
e 147 228
e 147 230
e 147 242
e 147 248
e 147 249
e 147 255
e 147 274
e 147 277
e 147 284
e 148 224
e 148 227
e 148 229
e 148 231
e 148 232
e 148 250
e 148 256
e 148 278
e 148 281
e 149 160
e 149 182
e 149 183
e 149 197
e 149 225
e 149 226
e 149 252
e 149 272
e 149 273
e 149 278
e 149 283
e 150 152
e 150 174
e 150 176
e 150 177
e 150 184
e 150 185
e 150 199
e 150 227
e 150 241
e 150 245
e 150 261
e 151 152
e 151 153
e 151 154
e 151 173
e 151 175
e 151 186
e 151 187
e 151 188
e 151 189
e 151 198
e 151 228
e 151 229
e 151 240
e 151 244
e 151 247
e 151 252
e 152 174
e 152 176
e 152 177
e 152 186
e 152 187
e 152 188
e 152 189
e 152 199
e 152 228
e 152 229
e 152 241
e 152 245
e 152 261
e 153 154
e 153 173
e 153 175
e 153 190
e 153 191
e 153 192
e 153 193
e 153 198
e 153 230
e 153 231
e 153 240
e 153 244
e 153 247
e 153 252
e 154 173
e 154 175
e 154 194
e 154 195
e 154 198
e 154 232
e 154 240
e 154 244
e 154 247
e 154 252
e 154 253
e 155 196
e 155 197
e 155 233
e 155 234
e 155 235
e 155 236
e 155 254
e 155 279
e 155 284
e 156 198
e 156 199
e 156 207
e 156 211
e 156 225
e 156 237
e 156 238
e 156 239
e 156 255
e 156 256
e 157 158
e 157 162
e 157 166
e 157 205
e 157 234
e 157 240
e 157 241
e 157 257
e 157 258
e 157 259
e 157 274
e 157 280
e 158 164
e 158 172
e 158 183
e 158 240
e 158 241
e 158 257
e 158 258
e 158 259
e 158 274
e 158 280
e 159 160
e 159 196
e 159 204
e 159 205
e 159 206
e 159 243
e 159 261
e 159 275
e 159 276
e 159 281
e 160 197
e 160 204
e 160 205
e 160 206
e 160 243
e 160 261
e 160 275
e 160 276
e 160 281
e 161 162
e 161 163
e 161 164
e 161 165
e 161 170
e 161 182
e 161 204
e 161 207
e 161 208
e 161 233
e 161 262
e 161 263
e 161 264
e 161 265
e 162 163
e 162 164
e 162 165
e 162 166
e 162 205
e 162 207
e 162 208
e 162 234
e 162 262
e 162 263
e 162 264
e 162 265
e 163 164
e 163 165
e 163 167
e 163 171
e 163 206
e 163 207
e 163 208
e 163 235
e 163 262
e 163 263
e 163 264
e 163 265
e 164 165
e 164 172
e 164 183
e 164 207
e 164 208
e 164 262
e 164 263
e 164 264
e 164 265
e 165 168
e 165 207
e 165 208
e 165 236
e 165 262
e 165 263
e 165 264
e 165 265
e 166 167
e 166 168
e 166 205
e 166 209
e 166 234
e 166 244
e 166 245
e 166 266
e 166 267
e 166 268
e 166 277
e 167 168
e 167 171
e 167 206
e 167 209
e 167 235
e 167 244
e 167 245
e 167 266
e 167 267
e 167 268
e 167 277
e 168 209
e 168 236
e 168 244
e 168 245
e 168 266
e 168 267
e 168 268
e 168 277
e 169 186
e 169 190
e 169 200
e 169 213
e 169 237
e 169 246
e 169 262
e 169 266
e 169 269
e 170 171
e 170 172
e 170 182
e 170 204
e 170 210
e 170 211
e 170 212
e 170 233
e 170 247
e 170 269
e 170 270
e 170 282
e 171 172
e 171 206
e 171 210
e 171 211
e 171 212
e 171 235
e 171 247
e 171 269
e 171 270
e 171 282
e 172 183
e 172 210
e 172 211
e 172 212
e 172 247
e 172 269
e 172 270
e 172 282
e 173 174
e 173 175
e 173 198
e 173 213
e 173 214
e 173 215
e 173 216
e 173 240
e 173 244
e 173 247
e 173 248
e 173 252
e 174 176
e 174 177
e 174 199
e 174 213
e 174 214
e 174 215
e 174 216
e 174 241
e 174 245
e 174 248
e 174 261
e 175 176
e 175 198
e 175 217
e 175 218
e 175 219
e 175 220
e 175 240
e 175 244
e 175 247
e 175 252
e 175 271
e 176 177
e 176 199
e 176 217
e 176 218
e 176 219
e 176 220
e 176 241
e 176 245
e 176 261
e 176 271
e 177 199
e 177 221
e 177 222
e 177 223
e 177 241
e 177 245
e 177 249
e 177 250
e 177 261
e 178 179
e 178 180
e 178 184
e 178 191
e 178 194
e 178 217
e 178 221
e 178 224
e 178 251
e 178 263
e 178 267
e 178 270
e 178 275
e 179 180
e 179 185
e 179 187
e 179 201
e 179 214
e 179 218
e 179 222
e 179 224
e 179 238
e 179 251
e 179 257
e 179 264
e 179 268
e 179 272
e 180 189
e 180 193
e 180 203
e 180 216
e 180 220
e 180 223
e 180 224
e 180 239
e 180 251
e 180 259
e 180 265
e 181 246
e 181 251
e 181 253
e 181 260
e 181 271
e 181 280
e 181 282
e 181 283
e 182 183
e 182 204
e 182 225
e 182 226
e 182 233
e 182 252
e 182 272
e 182 273
e 182 278
e 182 283
e 183 225
e 183 226
e 183 252
e 183 272
e 183 273
e 183 278
e 183 283
e 184 185
e 184 191
e 184 194
e 184 217
e 184 221
e 184 227
e 184 263
e 184 267
e 184 270
e 184 275
e 185 187
e 185 201
e 185 214
e 185 218
e 185 222
e 185 227
e 185 238
e 185 257
e 185 264
e 185 268
e 185 272
e 186 187
e 186 188
e 186 189
e 186 190
e 186 200
e 186 213
e 186 228
e 186 229
e 186 237
e 186 262
e 186 266
e 186 269
e 187 188
e 187 189
e 187 201
e 187 214
e 187 218
e 187 222
e 187 228
e 187 229
e 187 238
e 187 257
e 187 264
e 187 268
e 187 272
e 188 189
e 188 192
e 188 195
e 188 202
e 188 215
e 188 219
e 188 228
e 188 229
e 188 258
e 188 273
e 188 276
e 188 279
e 189 193
e 189 203
e 189 216
e 189 220
e 189 223
e 189 228
e 189 229
e 189 239
e 189 259
e 189 265
e 190 191
e 190 192
e 190 193
e 190 200
e 190 213
e 190 230
e 190 231
e 190 237
e 190 262
e 190 266
e 190 269
e 191 192
e 191 193
e 191 194
e 191 217
e 191 221
e 191 230
e 191 231
e 191 263
e 191 267
e 191 270
e 191 275
e 192 193
e 192 195
e 192 202
e 192 215
e 192 219
e 192 230
e 192 231
e 192 258
e 192 273
e 192 276
e 192 279
e 193 203
e 193 216
e 193 220
e 193 223
e 193 230
e 193 231
e 193 239
e 193 259
e 193 265
e 194 195
e 194 217
e 194 221
e 194 232
e 194 253
e 194 263
e 194 267
e 194 270
e 194 275
e 195 202
e 195 215
e 195 219
e 195 232
e 195 253
e 195 258
e 195 273
e 195 276
e 195 279
e 196 197
e 196 233
e 196 234
e 196 235
e 196 236
e 196 254
e 196 279
e 196 284
e 197 233
e 197 234
e 197 235
e 197 236
e 197 254
e 197 279
e 197 284
e 198 199
e 198 237
e 198 238
e 198 239
e 198 240
e 198 244
e 198 247
e 198 252
e 198 255
e 198 256
e 199 237
e 199 238
e 199 239
e 199 241
e 199 245
e 199 255
e 199 256
e 199 261
e 200 201
e 200 202
e 200 203
e 200 213
e 200 237
e 200 242
e 200 260
e 200 262
e 200 266
e 200 269
e 201 202
e 201 203
e 201 214
e 201 218
e 201 222
e 201 238
e 201 242
e 201 257
e 201 260
e 201 264
e 201 268
e 201 272
e 202 203
e 202 215
e 202 219
e 202 242
e 202 258
e 202 260
e 202 273
e 202 276
e 202 279
e 203 216
e 203 220
e 203 223
e 203 239
e 203 242
e 203 259
e 203 260
e 203 265
e 204 205
e 204 206
e 204 233
e 204 243
e 204 261
e 204 275
e 204 276
e 204 281
e 205 206
e 205 234
e 205 243
e 205 261
e 205 275
e 205 276
e 205 281
e 206 235
e 206 243
e 206 261
e 206 275
e 206 276
e 206 281
e 207 208
e 207 211
e 207 225
e 207 262
e 207 263
e 207 264
e 207 265
e 208 212
e 208 226
e 208 254
e 208 262
e 208 263
e 208 264
e 208 265
e 209 210
e 209 243
e 209 244
e 209 245
e 209 266
e 209 267
e 209 268
e 209 277
e 210 211
e 210 212
e 210 243
e 210 247
e 210 269
e 210 270
e 210 282
e 211 212
e 211 225
e 211 247
e 211 269
e 211 270
e 211 282
e 212 226
e 212 247
e 212 254
e 212 269
e 212 270
e 212 282
e 213 214
e 213 215
e 213 216
e 213 237
e 213 248
e 213 262
e 213 266
e 213 269
e 214 215
e 214 216
e 214 218
e 214 222
e 214 238
e 214 248
e 214 257
e 214 264
e 214 268
e 214 272
e 215 216
e 215 219
e 215 248
e 215 258
e 215 273
e 215 276
e 215 279
e 216 220
e 216 223
e 216 239
e 216 248
e 216 259
e 216 265
e 217 218
e 217 219
e 217 220
e 217 221
e 217 263
e 217 267
e 217 270
e 217 271
e 217 275
e 218 219
e 218 220
e 218 222
e 218 238
e 218 257
e 218 264
e 218 268
e 218 271
e 218 272
e 219 220
e 219 258
e 219 271
e 219 273
e 219 276
e 219 279
e 220 223
e 220 239
e 220 259
e 220 265
e 220 271
e 221 222
e 221 223
e 221 249
e 221 250
e 221 263
e 221 267
e 221 270
e 221 275
e 222 223
e 222 238
e 222 249
e 222 250
e 222 257
e 222 264
e 222 268
e 222 272
e 223 239
e 223 249
e 223 250
e 223 259
e 223 265
e 224 227
e 224 229
e 224 231
e 224 232
e 224 250
e 224 251
e 224 256
e 224 278
e 224 281
e 225 226
e 225 252
e 225 272
e 225 273
e 225 278
e 225 283
e 226 252
e 226 254
e 226 272
e 226 273
e 226 278
e 226 283
e 227 229
e 227 231
e 227 232
e 227 250
e 227 256
e 227 278
e 227 281
e 228 229
e 228 230
e 228 242
e 228 248
e 228 249
e 228 255
e 228 274
e 228 277
e 228 284
e 229 231
e 229 232
e 229 250
e 229 256
e 229 278
e 229 281
e 230 231
e 230 242
e 230 248
e 230 249
e 230 255
e 230 274
e 230 277
e 230 284
e 231 232
e 231 250
e 231 256
e 231 278
e 231 281
e 232 250
e 232 253
e 232 256
e 232 278
e 232 281
e 233 234
e 233 235
e 233 236
e 233 254
e 233 279
e 233 284
e 234 235
e 234 236
e 234 254
e 234 279
e 234 284
e 235 236
e 235 254
e 235 279
e 235 284
e 236 254
e 236 279
e 236 284
e 237 238
e 237 239
e 237 255
e 237 256
e 237 262
e 237 266
e 237 269
e 238 239
e 238 255
e 238 256
e 238 257
e 238 264
e 238 268
e 238 272
e 239 255
e 239 256
e 239 259
e 239 265
e 240 241
e 240 244
e 240 247
e 240 252
e 240 257
e 240 258
e 240 259
e 240 274
e 240 280
e 241 245
e 241 257
e 241 258
e 241 259
e 241 261
e 241 274
e 241 280
e 242 248
e 242 249
e 242 255
e 242 260
e 242 274
e 242 277
e 242 284
e 243 261
e 243 275
e 243 276
e 243 281
e 244 245
e 244 247
e 244 252
e 244 266
e 244 267
e 244 268
e 244 277
e 245 261
e 245 266
e 245 267
e 245 268
e 245 277
e 246 251
e 246 253
e 246 260
e 246 271
e 246 280
e 246 282
e 246 283
e 247 252
e 247 269
e 247 270
e 247 282
e 248 249
e 248 255
e 248 274
e 248 277
e 248 284
e 249 250
e 249 255
e 249 274
e 249 277
e 249 284
e 250 256
e 250 278
e 250 281
e 251 253
e 251 260
e 251 271
e 251 280
e 251 282
e 251 283
e 252 272
e 252 273
e 252 278
e 252 283
e 253 260
e 253 271
e 253 280
e 253 282
e 253 283
e 254 279
e 254 284
e 255 256
e 255 274
e 255 277
e 255 284
e 256 278
e 256 281
e 257 258
e 257 259
e 257 264
e 257 268
e 257 272
e 257 274
e 257 280
e 258 259
e 258 273
e 258 274
e 258 276
e 258 279
e 258 280
e 259 265
e 259 274
e 259 280
e 260 271
e 260 280
e 260 282
e 260 283
e 261 275
e 261 276
e 261 281
e 262 263
e 262 264
e 262 265
e 262 266
e 262 269
e 263 264
e 263 265
e 263 267
e 263 270
e 263 275
e 264 265
e 264 268
e 264 272
e 266 267
e 266 268
e 266 269
e 266 277
e 267 268
e 267 270
e 267 275
e 267 277
e 268 272
e 268 277
e 269 270
e 269 282
e 270 275
e 270 282
e 271 280
e 271 282
e 271 283
e 272 273
e 272 278
e 272 283
e 273 276
e 273 278
e 273 279
e 273 283
e 274 277
e 274 280
e 274 284
e 275 276
e 275 281
e 276 279
e 276 281
e 277 284
e 278 281
e 278 283
e 279 284
e 280 282
e 280 283
e 282 283
